benchmarks_vrp/CMT12/min_c/CMT12_8.vrp
NAME: CMT12_8
TYPE: CVRP
COMMENT: 819.56 - Cluster Nr.8
DIMENSION: 10
CAPACITY: 200
EDGE_WEIGHT_TYPE: EUC_2D
NODE_COORD_TYPE: TWOD_COORDS
NODE_COORD_SECTION: 
4 40 50
7 0 45
5 0 40
9 2 40
1 5 35
2 8 45
10 5 45
8 10 40
6 10 35
3 8 40
DEPOT_SECTION: 
4
-1
DEMAND_SECTION: 
1 10
3 40
10 10
7 20
6 20
4 0
9 20
8 30
2 20
5 30
EOF
