benchmarks_vrp/CMT12/min_c/CMT12_8.tour
NAME: CMT12_8 solution
TYPE: TOUR
TOUR_SECTION:
4 2 10 7 5 9 1 6 3 8 -1
-1
EOF